Academic license - for non-commercial use only
Gurobi Optimizer version 9.0.3 build v9.0.3rc0 (mac64)
Optimize a model with 415466 rows, 400800 columns and 2301950 nonzeros
Model fingerprint: 0x3041d2c6
Variable types: 0 continuous, 400800 integer (400800 binary)
Coefficient statistics:
  Matrix range     [1e+00, 1e+00]
  Objective range  [1e+01, 1e+05]
  Bounds range     [1e+00, 1e+00]
  RHS range        [1e+00, 1e+03]
Presolve removed 6050 rows and 50 columns (presolve time = 5s) ...
Presolve added 0 rows and 5950 columns
Presolve removed 50 rows and 0 columns
Presolve time: 6.49s
Presolved: 415416 rows, 406750 columns, 1719850 nonzeros
Variable types: 0 continuous, 406750 integer (406750 binary)
Found heuristic solution: objective 665720.00000

Concurrent LP optimizer: dual simplex and barrier
Showing barrier log only...

Root barrier log...

Ordering time: 0.12s

Barrier statistics:
 Dense cols : 400
 AA' NZ     : 1.332e+06
 Factor NZ  : 5.533e+06 (roughly 400 MBytes of memory)
 Factor Ops : 1.335e+09 (less than 1 second per iteration)
 Threads    : 3

                  Objective                Residual
Iter       Primal          Dual         Primal    Dual     Compl     Time
   0   5.37181797e+08 -7.76283809e+08  6.16e+02 2.93e+01  2.85e+04    14s
   1   3.11659848e+06 -7.79095297e+08  1.90e+01 1.58e+04  9.47e+02    15s
   2   1.54402507e+06 -8.93165616e+07  6.67e+00 8.48e+02  1.52e+02    15s
   3   9.53022002e+05 -3.58367499e+07  2.03e+00 9.89e+01  4.54e+01    16s
   4   7.15807242e+05 -1.01120529e+07  2.42e-01 1.24e+01  9.58e+00    17s
   5   6.48381838e+05 -6.36466411e+05  1.15e-02 1.12e+00  1.05e+00    17s
   6   6.16651735e+05  1.62330667e+05  7.48e-03 3.09e-01  3.72e-01    18s
   7   6.05172098e+05  3.01935699e+05  6.63e-03 1.82e-01  2.48e-01    18s
   8   5.94617704e+05  3.66072455e+05  5.94e-03 1.21e-01  1.87e-01    19s
   9   5.83830600e+05  4.06415298e+05  5.28e-03 8.13e-02  1.45e-01    19s
  10   5.80734752e+05  4.26133710e+05  5.09e-03 6.11e-02  1.26e-01    20s
  11   5.70347179e+05  4.40923660e+05  4.48e-03 4.62e-02  1.06e-01    21s
  12   5.64101747e+05  4.55312599e+05  4.14e-03 3.46e-02  8.87e-02    21s
  13   5.58579810e+05  4.63571505e+05  3.83e-03 2.53e-02  7.74e-02    22s
  14   5.51327474e+05  4.71180383e+05  3.48e-03 1.72e-02  6.53e-02    23s
  15   5.46839074e+05  4.75037844e+05  3.26e-03 1.30e-02  5.85e-02    24s
  16   5.39803905e+05  4.77766828e+05  2.91e-03 1.01e-02  5.05e-02    25s
  17   5.35460668e+05  4.79836233e+05  2.69e-03 7.77e-03  4.53e-02    25s
  18   5.33260998e+05  4.81714537e+05  2.57e-03 6.04e-03  4.20e-02    26s
  19   5.32840405e+05  4.81974571e+05  2.55e-03 5.77e-03  4.14e-02    27s
  20   5.23878959e+05  4.82902971e+05  2.07e-03 4.67e-03  3.34e-02    28s
  21   5.21937844e+05  4.83756228e+05  1.98e-03 3.78e-03  3.11e-02    28s
  22   5.18584728e+05  4.84237260e+05  1.78e-03 3.26e-03  2.80e-02    29s
  23   5.18375459e+05  4.84423911e+05  1.77e-03 3.10e-03  2.76e-02    30s
  24   5.12157533e+05  4.84980149e+05  1.43e-03 2.64e-03  2.21e-02    30s
  25   5.08558983e+05  4.85327544e+05  1.24e-03 2.29e-03  1.89e-02    31s
  26   5.05276683e+05  4.85637443e+05  1.06e-03 2.00e-03  1.60e-02    31s
  27   5.03082959e+05  4.86182187e+05  9.41e-04 1.52e-03  1.38e-02    32s
  28   5.00977322e+05  4.86326231e+05  8.18e-04 1.40e-03  1.19e-02    33s
  29   4.99194565e+05  4.86741452e+05  7.16e-04 1.22e-03  1.01e-02    33s
  30   4.98163383e+05  4.86884273e+05  6.59e-04 1.06e-03  9.17e-03    34s
  31   4.96498606e+05  4.86984066e+05  5.57e-04 9.51e-04  7.74e-03    34s
  32   4.95535415e+05  4.87064156e+05  4.96e-04 8.67e-04  6.89e-03    35s
  33   4.95152057e+05  4.87182038e+05  4.70e-04 7.57e-04  6.48e-03    36s
  34   4.94065801e+05  4.87269364e+05  4.03e-04 6.67e-04  5.53e-03    36s
  35   4.93303736e+05  4.87388918e+05  3.59e-04 5.56e-04  4.81e-03    37s
  36   4.92687904e+05  4.87500158e+05  3.21e-04 4.37e-04  4.22e-03    37s
  37   4.92028848e+05  4.87560571e+05  2.80e-04 3.76e-04  3.63e-03    38s
  38   4.91619691e+05  4.87617718e+05  2.54e-04 3.16e-04  3.25e-03    39s
  39   4.90930906e+05  4.87665867e+05  2.12e-04 2.76e-04  2.65e-03    39s
  40   4.90675093e+05  4.87701332e+05  1.94e-04 2.37e-04  2.42e-03    40s
  41   4.90273202e+05  4.87742133e+05  1.67e-04 1.93e-04  2.06e-03    40s
  42   4.89923578e+05  4.87766510e+05  1.43e-04 1.68e-04  1.75e-03    41s
  43   4.89653776e+05  4.87820351e+05  1.23e-04 1.40e-04  1.49e-03    41s
  44   4.89500286e+05  4.87846858e+05  1.13e-04 1.05e-04  1.34e-03    42s
  45   4.89344338e+05  4.87859509e+05  1.02e-04 9.30e-05  1.21e-03    42s
  46   4.89159734e+05  4.87865952e+05  8.93e-05 9.13e-05  1.05e-03    43s
  47   4.89004591e+05  4.87875908e+05  7.82e-05 7.88e-05  9.17e-04    43s
  48   4.88832857e+05  4.87885784e+05  6.57e-05 6.89e-05  7.69e-04    44s
  49   4.88746582e+05  4.87892903e+05  5.92e-05 5.90e-05  6.94e-04    44s
  50   4.88643596e+05  4.87900422e+05  5.17e-05 5.32e-05  6.04e-04    45s
  51   4.88588254e+05  4.87901492e+05  4.78e-05 5.22e-05  5.58e-04    45s
  52   4.88508689e+05  4.87912810e+05  4.17e-05 4.15e-05  4.84e-04    46s
  53   4.88447463e+05  4.87916551e+05  3.75e-05 3.57e-05  4.31e-04    46s
  54   4.88364937e+05  4.87923134e+05  3.19e-05 2.77e-05  3.59e-04    47s
  55   4.88310332e+05  4.87925798e+05  2.79e-05 2.45e-05  3.12e-04    47s
  56   4.88236769e+05  4.87933312e+05  2.26e-05 1.66e-05  2.46e-04    48s
  57   4.88206514e+05  4.87935988e+05  2.04e-05 1.31e-05  2.20e-04    48s
  58   4.88166584e+05  4.87937398e+05  1.75e-05 1.29e-05  1.86e-04    49s
  59   4.88135827e+05  4.87938363e+05  1.52e-05 1.14e-05  1.60e-04    49s
  60   4.88114063e+05  4.87939558e+05  1.36e-05 9.30e-06  1.42e-04    50s
  61   4.88082264e+05  4.87940410e+05  1.14e-05 7.78e-06  1.15e-04    50s
  62   4.88049162e+05  4.87941919e+05  8.72e-06 6.13e-06  8.70e-05    51s
  63   4.88037823e+05  4.87942541e+05  7.78e-06 5.24e-06  7.73e-05    51s
  64   4.88023500e+05  4.87943279e+05  6.55e-06 4.31e-06  6.51e-05    52s
  65   4.88014700e+05  4.87943605e+05  5.83e-06 3.84e-06  5.77e-05    52s
  66   4.87995554e+05  4.87944637e+05  4.21e-06 2.88e-06  4.13e-05    53s
  67   4.87989545e+05  4.87945520e+05  3.71e-06 1.93e-06  3.57e-05    53s
  68   4.87979425e+05  4.87945799e+05  2.84e-06 1.56e-06  2.73e-05    54s
  69   4.87965996e+05  4.87946309e+05  1.70e-06 9.82e-07  1.60e-05    54s
  70   4.87959295e+05  4.87946635e+05  1.08e-06 5.91e-07  1.03e-05    55s
  71   4.87958315e+05  4.87946853e+05  1.01e-06 4.13e-07  9.30e-06    55s
  72   4.87957534e+05  4.87946863e+05  9.38e-07 4.03e-07  8.65e-06    56s
  73   4.87956757e+05  4.87946908e+05  8.68e-07 3.45e-07  7.99e-06    56s
  74   4.87954681e+05  4.87946966e+05  6.87e-07 2.77e-07  6.26e-06    57s
  75   4.87953256e+05  4.87947112e+05  5.52e-07 1.68e-07  4.98e-06    57s
  76   4.87951429e+05  4.87947188e+05  3.78e-07 9.40e-08  3.44e-06    57s
  77   4.87950060e+05  4.87947208e+05  2.49e-07 7.62e-08  2.31e-06    58s
  78   4.87947919e+05  4.87947275e+05  4.93e-08 1.17e-07  5.23e-07    58s
  79   4.87947517e+05  4.87947315e+05  1.36e-08 6.54e-08  1.64e-07    59s
  80   4.87947440e+05  4.87947353e+05  6.84e-09 4.16e-08  7.03e-08    59s
  81   4.87947440e+05  4.87947354e+05  1.58e-08 4.16e-08  6.99e-08    60s
  82   4.87947435e+05  4.87947359e+05  2.32e-08 5.49e-08  6.18e-08    60s
  83   4.87947434e+05  4.87947359e+05  2.93e-08 2.26e-08  6.10e-08    60s
  84   4.87947434e+05  4.87947359e+05  2.93e-08 2.25e-08  6.10e-08    61s
  85   4.87947434e+05  4.87947359e+05  2.92e-08 2.25e-08  6.09e-08    61s
  86   4.87947434e+05  4.87947359e+05  2.92e-08 2.25e-08  6.09e-08    62s
  87   4.87947433e+05  4.87947359e+05  2.92e-08 2.24e-08  6.08e-08    63s
  88   4.87947433e+05  4.87947359e+05  2.91e-08 2.23e-08  6.06e-08    63s
  89   4.87947433e+05  4.87947359e+05  2.91e-08 2.23e-08  6.06e-08    64s
  90   4.87947433e+05  4.87947359e+05  2.90e-08 2.22e-08  6.04e-08    64s
  91   4.87947433e+05  4.87947359e+05  2.89e-08 2.22e-08  6.02e-08    65s
  92   4.87947433e+05  4.87947359e+05  2.89e-08 2.22e-08  6.02e-08    66s

Barrier performed 92 iterations in 65.64 seconds
Sub-optimal termination - objective 4.87947435e+05


Root crossover log...

  249388 DPushes remaining with DInf 0.0000000e+00                66s
     290 DPushes remaining with DInf 0.0000000e+00                70s
       0 DPushes remaining with DInf 0.0000000e+00                70s

    1963 PPushes remaining with PInf 8.2739277e-05                71s
       0 PPushes remaining with PInf 0.0000000e+00                71s

  Push phase complete: Pinf 0.0000000e+00, Dinf 6.9804322e-01     71s


Root simplex log...

Iteration    Objective       Primal Inf.    Dual Inf.      Time
   39332    4.8794736e+05   0.000000e+00   6.980432e-01     72s
   39336    4.8794736e+05   0.000000e+00   0.000000e+00     72s

Solved with barrier

Root relaxation: objective 4.879474e+05, 39336 iterations, 59.72 seconds
Total elapsed time = 75.38s

    Nodes    |    Current Node    |     Objective Bounds      |     Work
 Expl Unexpl |  Obj  Depth IntInf | Incumbent    BestBd   Gap | It/Node Time

     0     0 487947.362    0 28658 665720.000 487947.362  26.7%     -   77s
H    0     0                    513087.00000 487947.362  4.90%     -   84s
     0     0 487949.653    0 28605 513087.000 487949.653  4.90%     -  159s
     0     0 487949.983    0 28648 513087.000 487949.983  4.90%     -  169s
     0     0 487953.520    0 28644 513087.000 487953.520  4.90%     -  200s
     0     0 487953.520    0 28644 513087.000 487953.520  4.90%     -  230s
H    0     0                    512063.00000 487953.520  4.71%     -  253s
     0     2 487953.520    0 28644 512063.000 487953.520  4.71%     -  286s

Cutting planes:
  Gomory: 3

Explored 1 nodes (57476 simplex iterations) in 300.17 seconds
Thread count was 8 (of 8 available processors)

Solution count 3: 512063 513087 665720 

Time limit reached
Best objective 5.120630000000e+05, best bound 4.879540000000e+05, gap 4.7082%

User-callback calls 33940, time in user-callback 0.35 sec
Solution written to /Users/mdeboute/Desktop/Etudes/Master/M2/S9/GOPP/Projet/multi-period-flp/solution/instSingle_I50_J1000_T8_0_result.txt
